Route #1: 1 18 23 35 36 24 2 3 12 4 5 25 29 30 43 47 42 51 41 40 50 62 71 63 59 64 72 76 83 77 73 60 52 53 48 44 37 33 32 20 31 19 13 6 14 7 8 9 15 21 16 10 26 22 11 17 28 34 39 27 38 46 57 58 70 69 81 86 93 92 97 91 96 90 85 74 67 68 79 80 75 61 56 45 49 55 54 66 65 78 89 95 94 84 88 100 99 98 87 82
Cost 46556
